sat
(:added-eqs               14
 :arith-branch            130
 :arith-conflicts         11
 :arith-cube-calls        32
 :arith-cube-success      1
 :arith-dio-calls         5
 :arith-fixed-eqs         15
 :arith-lower             99
 :arith-make-feasible     170
 :arith-max-columns       212
 :arith-max-rows          84
 :arith-patches           131
 :arith-upper             226
 :conflicts               11
 :decisions               141
 :final-checks            131
 :max-memory              58.83
 :memory                  21.28
 :mk-bool-var             327
 :mk-clause               12
 :num-allocs              5797897969.00
 :num-checks              2
 :propagations            3
 :rlimit-count            17313734
 :sat-backjumps           51548
 :sat-backtracks          123
 :sat-conflicts           51671
 :sat-decisions           180091
 :sat-del-clause          15301
 :sat-elim-bool-vars-res  2817
 :sat-elim-clauses        935
 :sat-elim-literals       525
 :sat-minimized-lits      623946
 :sat-mk-clause-2ary      37185
 :sat-mk-clause-3ary      9943
 :sat-mk-clause-nary      142364
 :sat-mk-var              34436
 :sat-probing-assigned    217
 :sat-propagations-2ary   8989910
 :sat-propagations-nary   7626044
 :sat-restarts            7251
 :sat-scc-elim-binary     2
 :sat-scc-elim-vars       1
 :sat-subs-resolution     72
 :sat-subs-resolution-dyn 15200
 :sat-subsumed            103
 :sat-units               238
 :time                    7.08
 :total-time              7.06)
